(set-info :smt-lib-version 2.6)
(set-logic QF_SNIA)
(set-info :source  | 
Generated by: Johannes Bauer
Generated on: 2026-06-21
Generator: mgm A12 Test Data Generator
Application: ELSTER
Target solver: Z3, CVC5
Script is based on the ELSTER form: capital gains tax registration (A / KapEStInvStG)
Characteristic of the form: easy.
In this script, all terms of the form (* x1 x2 x3 ...) are in the form (* x1 c2 c3 ...),
all terms of the form (div x y) are in the form (div x c) and the symbol mod is exclusively used in the form (mod x c),
where x, y, and x1, x2, x3 ... are free constants and c, c2, c3 ... are terms in the form n or (-n) for some numeral n.
The script starts with the base constraints, which define a valid data set for the corresponding form. After the first (push 1), control constraints follow.
The goal of the control constraints in this script is to fill up a data set with values, after the characteristics of the high test coverage were placed.
number variables: 135, number constraints: 172
"https://www.elster.de/eportal/start?locale=en_US"
"https://www.mgm-tp.com/q12-tdg.html"
"https://a12.ai/public-sector"
|)
(set-info :license "https://creativecommons.org/licenses/by/4.0/")
(set-info :category "industrial")
(declare-fun S1-S () String)
(declare-fun S2-S () String)
(declare-fun B3-F () Bool)
(declare-fun S3-S () String)
(declare-fun B4-F () Bool)
(declare-fun B5-F () Bool)
(declare-fun I5-y () Int)
(declare-fun B6-F () Bool)
(declare-fun S6-S () String)
(declare-fun B7-F () Bool)
(declare-fun S8-S () String)
(declare-fun I9-y () Int)
(declare-fun I9-m () Int)
(declare-fun I9-d () Int)
(declare-fun I10-y () Int)
(declare-fun I10-m () Int)
(declare-fun I10-d () Int)
(declare-fun I11 () Int)
(declare-fun I12 () Int)
(declare-fun I13 () Int)
(declare-fun I14 () Int)
(declare-fun I15-s-y () Int)
(declare-fun I15-s-m () Int)
(declare-fun I15-s-d () Int)
(declare-fun I15-e-y () Int)
(declare-fun I15-e-m () Int)
(declare-fun I15-e-d () Int)
(declare-fun I16-y () Int)
(declare-fun I16-m () Int)
(declare-fun I16-d () Int)
(declare-fun I17-y () Int)
(declare-fun I17-m () Int)
(declare-fun I17-d () Int)
(declare-fun I18 () Int)
(declare-fun I19 () Int)
(declare-fun I20 () Int)
(declare-fun I21 () Int)
(declare-fun I22 () Int)
(declare-fun I23-s-y () Int)
(declare-fun I23-s-m () Int)
(declare-fun I23-s-d () Int)
(declare-fun I23-e-y () Int)
(declare-fun I23-e-m () Int)
(declare-fun I23-e-d () Int)
(declare-fun I24-y () Int)
(declare-fun I24-m () Int)
(declare-fun I24-d () Int)
(declare-fun I25-y () Int)
(declare-fun I25-m () Int)
(declare-fun I25-d () Int)
(declare-fun I26 () Int)
(declare-fun I27 () Int)
(declare-fun I28 () Int)
(declare-fun I29 () Int)
(declare-fun S30-S () String)
(declare-fun I31-y () Int)
(declare-fun I31-m () Int)
(declare-fun I31-d () Int)
(declare-fun B32-F () Bool)
(declare-fun I32-y () Int)
(declare-fun I32-m () Int)
(declare-fun I32-d () Int)
(declare-fun B33-F () Bool)
(declare-fun I33-y () Int)
(declare-fun I33-m () Int)
(declare-fun I33-d () Int)
(declare-fun I34 () Int)
(declare-fun I35 () Int)
(declare-fun I36 () Int)
(declare-fun I37 () Int)
(declare-fun I38 () Int)
(declare-fun I39 () Int)
(declare-fun I40-y () Int)
(declare-fun I40-m () Int)
(declare-fun I40-d () Int)
(declare-fun I41 () Int)
(declare-fun I42 () Int)
(declare-fun I43 () Int)
(declare-fun I44 () Int)
(declare-fun I45 () Int)
(declare-fun I46 () Int)
(declare-fun I47 () Int)
(declare-fun I48 () Int)
(declare-fun I49 () Int)
(declare-fun B50-F () Bool)
(declare-fun B51-F () Bool)
(declare-fun I51 () Int)
(declare-fun B52-F () Bool)
(declare-fun I52 () Int)
(declare-fun B53-F () Bool)
(declare-fun I53 () Int)
(declare-fun B54-F () Bool)
(declare-fun I55 () Int)
(declare-fun I56 () Int)
(declare-fun B57-F () Bool)
(declare-fun I57-y () Int)
(declare-fun I57-m () Int)
(declare-fun I57-d () Int)
(declare-fun B58-F () Bool)
(declare-fun B59-F () Bool)
(declare-fun I59 () Int)
(declare-fun B60-F () Bool)
(declare-fun I60 () Int)
(declare-fun B61-F () Bool)
(declare-fun B62-F () Bool)
(declare-fun B63-F () Bool)
(declare-fun B64-F () Bool)
(declare-fun I64 () Int)
(declare-fun B65-F () Bool)
(declare-fun I65 () Int)
(declare-fun B66-F () Bool)
(declare-fun I66 () Int)
(declare-fun B67-F () Bool)
(declare-fun B68-F () Bool)
(declare-fun B69-F () Bool)
(declare-fun B70-F () Bool)
(declare-fun I70 () Int)
(declare-fun B71-F () Bool)
(declare-fun B72-F () Bool)
(declare-fun I72 () Int)
(declare-fun B73-F () Bool)
(declare-fun B74-F () Bool)
(declare-fun B75-F () Bool)
(declare-fun B76-F () Bool)
(declare-fun I76 () Int)
(declare-fun B77-F () Bool)
(declare-fun I77 () Int)
(declare-fun B78-F () Bool)
(declare-fun B79-F () Bool)
(declare-fun I79 () Int)
(declare-fun B80-F () Bool)
(declare-fun I81 () Int)
(declare-fun B82-F () Bool)
(declare-fun B83-F () Bool)
(declare-fun B84-F () Bool)
(assert (not (or B57-F B58-F)))
(assert (= B58-F (or B59-F B60-F)))
(assert (= B82-F (or B83-F B84-F)))
(assert B54-F)
(assert (= B50-F (or B51-F B52-F B53-F)))
(assert (= B61-F (or B62-F B80-F)))
(assert (= B62-F (or B63-F B64-F B65-F B66-F B67-F B68-F B69-F B70-F B71-F B72-F B73-F B74-F B75-F B76-F B77-F B78-F B79-F)))
(assert (ite B59-F (and (<= I59 999999999999) (>= I59 0)) (= I59 0)))
(assert (ite B60-F (and (<= I60 999999999999) (>= I60 0)) (= I60 0)))
(assert (and (<= I55 999999999999) (>= I55 (- 999999999999))))
(assert (and (<= I56 99999999999999) (>= I56 (- 99999999999999))))
(assert (and (<= I11 999999999999) (>= I11 (- 999999999999))))
(assert (and (<= I12 999999999999) (>= I12 (- 999999999999))))
(assert (and (<= I13 999999999999) (>= I13 (- 999999999999))))
(assert (and (<= I14 99999999999999) (>= I14 (- 99999999999999))))
(assert (and (<= I34 99999999999999) (>= I34 (- 99999999999999))))
(assert (and (<= I35 999999999999) (>= I35 (- 999999999999))))
(assert (and (<= I36 999999999999) (>= I36 (- 999999999999))))
(assert (and (<= I37 999999999999) (>= I37 (- 999999999999))))
(assert (and (<= I38 999999999999) (>= I38 (- 999999999999))))
(assert (and (<= I39 99999999999999) (>= I39 (- 99999999999999))))
(assert (and (<= I41 999999999999) (>= I41 0)))
(assert (and (<= I42 999999999999) (>= I42 0)))
(assert (and (<= I43 99999999999999) (>= I43 0)))
(assert (and (<= I44 999999999999) (>= I44 0)))
(assert (and (<= I45 999999999999) (>= I45 0)))
(assert (and (<= I46 99999999999999) (>= I46 0)))
(assert (and (<= I47 999999999999) (>= I47 0)))
(assert (and (<= I48 999999999999) (>= I48 0)))
(assert (and (<= I49 99999999999999) (>= I49 0)))
(assert (ite B51-F (and (<= I51 999999999999) (>= I51 (- 999999999999))) (= I51 0)))
(assert (ite B52-F (and (<= I52 999999999999) (>= I52 (- 999999999999))) (= I52 0)))
(assert (ite B53-F (and (<= I53 99999999999999) (>= I53 (- 99999999999999))) (= I53 0)))
(assert (and (<= I18 999999999999) (>= I18 (- 999999999999))))
(assert (and (<= I19 99999999999999) (>= I19 (- 99999999999999))))
(assert (and (<= I20 99999999999999) (>= I20 (- 99999999999999))))
(assert (and (<= I21 999999999999) (>= I21 (- 999999999999))))
(assert (and (<= I22 99999999999999) (>= I22 (- 99999999999999))))
(assert (and (<= I26 999999999999) (>= I26 (- 999999999999))))
(assert (and (<= I27 999999999999) (>= I27 (- 999999999999))))
(assert (and (<= I28 99999999999999) (>= I28 (- 99999999999999))))
(assert (and (<= I29 99999999999999) (>= I29 (- 99999999999999))))
(assert (ite B66-F (and (<= I66 99999999999999) (>= I66 (- 9999999999999))) (= I66 0)))
(assert (ite B65-F (and (<= I65 99999999999999) (>= I65 (- 9999999999999))) (= I65 0)))
(assert (ite B63-F true false))
(assert (ite B64-F (and (<= I64 99999999999999) (>= I64 (- 9999999999999))) (= I64 0)))
(assert (ite B67-F true false))
(assert (ite B69-F true false))
(assert (ite B68-F true false))
(assert (ite B70-F (and (<= I70 99999999999999) (>= I70 (- 9999999999999))) (= I70 0)))
(assert (ite B71-F true false))
(assert (ite B72-F (and (<= I72 99999999999999) (>= I72 (- 9999999999999))) (= I72 0)))
(assert (ite B73-F true false))
(assert (ite B77-F (and (<= I77 99999999999999) (>= I77 (- 9999999999999))) (= I77 0)))
(assert (ite B74-F true false))
(assert (ite B75-F true false))
(assert (ite B76-F (and (<= I76 99999999999999) (>= I76 (- 9999999999999))) (= I76 0)))
(assert (ite B78-F true false))
(assert (ite B79-F (and (<= I79 99999999999999) (>= I79 (- 9999999999999))) (= I79 0)))
(assert (ite B80-F (and (<= I81 99999999999999) (>= I81 (- 9999999999999))) (= I81 0)))
(assert (and (ite B57-F (and (> I57-y 1900) (< I57-y 2100)) (= I57-y 0)) (ite B57-F (and (> I57-m 0) (<= I57-m 12)) (= I57-m 0)) (ite B57-F (and (> I57-d 0) (<= I57-d (ite (or (= I57-m 0) (= I57-m 1) (= I57-m 3) (= I57-m 5) (= I57-m 7) (= I57-m 8) (= I57-m 10) (= I57-m 12)) 31 (ite (or (= I57-m 4) (= I57-m 6) (= I57-m 9) (= I57-m 11)) 30 (ite (= (mod I57-y 4) 0) 29 28))))) (= I57-d 0))))
(assert (ite B5-F (and (> I5-y 1900) (< I5-y 2100)) (= I5-y 0)))
(assert (and (> I10-y 1900) (< I10-y 2100) (> I10-m 0) (<= I10-m 12) (> I10-d 0) (<= I10-d (ite (or (= I10-m 0) (= I10-m 1) (= I10-m 3) (= I10-m 5) (= I10-m 7) (= I10-m 8) (= I10-m 10) (= I10-m 12)) 31 (ite (or (= I10-m 4) (= I10-m 6) (= I10-m 9) (= I10-m 11)) 30 (ite (= (mod I10-y 4) 0) 29 28))))))
(assert (and (> I9-y 1900) (< I9-y 2100) (> I9-m 0) (<= I9-m 12) (> I9-d 0) (<= I9-d (ite (or (= I9-m 0) (= I9-m 1) (= I9-m 3) (= I9-m 5) (= I9-m 7) (= I9-m 8) (= I9-m 10) (= I9-m 12)) 31 (ite (or (= I9-m 4) (= I9-m 6) (= I9-m 9) (= I9-m 11)) 30 (ite (= (mod I9-y 4) 0) 29 28))))))
(assert (and (ite B32-F (and (> I32-y 1900) (< I32-y 2100)) (= I32-y 0)) (ite B32-F (and (> I32-m 0) (<= I32-m 12)) (= I32-m 0)) (ite B32-F (and (> I32-d 0) (<= I32-d (ite (or (= I32-m 0) (= I32-m 1) (= I32-m 3) (= I32-m 5) (= I32-m 7) (= I32-m 8) (= I32-m 10) (= I32-m 12)) 31 (ite (or (= I32-m 4) (= I32-m 6) (= I32-m 9) (= I32-m 11)) 30 (ite (= (mod I32-y 4) 0) 29 28))))) (= I32-d 0))))
(assert (and (> I31-y 1900) (< I31-y 2100) (> I31-m 0) (<= I31-m 12) (> I31-d 0) (<= I31-d (ite (or (= I31-m 0) (= I31-m 1) (= I31-m 3) (= I31-m 5) (= I31-m 7) (= I31-m 8) (= I31-m 10) (= I31-m 12)) 31 (ite (or (= I31-m 4) (= I31-m 6) (= I31-m 9) (= I31-m 11)) 30 (ite (= (mod I31-y 4) 0) 29 28))))))
(assert (and (ite B33-F (and (> I33-y 1900) (< I33-y 2100)) (= I33-y 0)) (ite B33-F (and (> I33-m 0) (<= I33-m 12)) (= I33-m 0)) (ite B33-F (and (> I33-d 0) (<= I33-d (ite (or (= I33-m 0) (= I33-m 1) (= I33-m 3) (= I33-m 5) (= I33-m 7) (= I33-m 8) (= I33-m 10) (= I33-m 12)) 31 (ite (or (= I33-m 4) (= I33-m 6) (= I33-m 9) (= I33-m 11)) 30 (ite (= (mod I33-y 4) 0) 29 28))))) (= I33-d 0))))
(assert (and (> I40-y 1900) (< I40-y 2100) (> I40-m 0) (<= I40-m 12) (> I40-d 0) (<= I40-d (ite (or (= I40-m 0) (= I40-m 1) (= I40-m 3) (= I40-m 5) (= I40-m 7) (= I40-m 8) (= I40-m 10) (= I40-m 12)) 31 (ite (or (= I40-m 4) (= I40-m 6) (= I40-m 9) (= I40-m 11)) 30 (ite (= (mod I40-y 4) 0) 29 28))))))
(assert (and (> I17-y 1900) (< I17-y 2100) (> I17-m 0) (<= I17-m 12) (> I17-d 0) (<= I17-d (ite (or (= I17-m 0) (= I17-m 1) (= I17-m 3) (= I17-m 5) (= I17-m 7) (= I17-m 8) (= I17-m 10) (= I17-m 12)) 31 (ite (or (= I17-m 4) (= I17-m 6) (= I17-m 9) (= I17-m 11)) 30 (ite (= (mod I17-y 4) 0) 29 28))))))
(assert (and (> I16-y 1900) (< I16-y 2100) (> I16-m 0) (<= I16-m 12) (> I16-d 0) (<= I16-d (ite (or (= I16-m 0) (= I16-m 1) (= I16-m 3) (= I16-m 5) (= I16-m 7) (= I16-m 8) (= I16-m 10) (= I16-m 12)) 31 (ite (or (= I16-m 4) (= I16-m 6) (= I16-m 9) (= I16-m 11)) 30 (ite (= (mod I16-y 4) 0) 29 28))))))
(assert (or (< I15-s-y I15-e-y) (and (= I15-s-y I15-e-y) (< I15-s-m I15-e-m)) (and (= I15-s-y I15-e-y) (= I15-s-m I15-e-m) (<= I15-s-d I15-e-d))))
(assert (and (>= I15-e-d 1) (<= I15-e-d (ite (or (= I15-e-m 0) (= I15-e-m 1) (= I15-e-m 3) (= I15-e-m 5) (= I15-e-m 7) (= I15-e-m 8) (= I15-e-m 10) (= I15-e-m 12)) 31 (ite (or (= I15-e-m 4) (= I15-e-m 6) (= I15-e-m 9) (= I15-e-m 11)) 30 (ite (= (mod I15-e-y 4) 0) 29 28))))))
(assert (and (>= I15-e-m 1) (<= I15-e-m 12)))
(assert (and (>= I15-e-y 1901) (<= I15-e-y 2099)))
(assert (and (>= I15-s-d 1) (<= I15-s-d (ite (or (= I15-s-m 0) (= I15-s-m 1) (= I15-s-m 3) (= I15-s-m 5) (= I15-s-m 7) (= I15-s-m 8) (= I15-s-m 10) (= I15-s-m 12)) 31 (ite (or (= I15-s-m 4) (= I15-s-m 6) (= I15-s-m 9) (= I15-s-m 11)) 30 (ite (= (mod I15-s-y 4) 0) 29 28))))))
(assert (and (>= I15-s-m 1) (<= I15-s-m 12)))
(assert (and (>= I15-s-y 1901) (<= I15-s-y 2099)))
(assert (and (> I25-y 1900) (< I25-y 2100) (> I25-m 0) (<= I25-m 12) (> I25-d 0) (<= I25-d (ite (or (= I25-m 0) (= I25-m 1) (= I25-m 3) (= I25-m 5) (= I25-m 7) (= I25-m 8) (= I25-m 10) (= I25-m 12)) 31 (ite (or (= I25-m 4) (= I25-m 6) (= I25-m 9) (= I25-m 11)) 30 (ite (= (mod I25-y 4) 0) 29 28))))))
(assert (and (> I24-y 1900) (< I24-y 2100) (> I24-m 0) (<= I24-m 12) (> I24-d 0) (<= I24-d (ite (or (= I24-m 0) (= I24-m 1) (= I24-m 3) (= I24-m 5) (= I24-m 7) (= I24-m 8) (= I24-m 10) (= I24-m 12)) 31 (ite (or (= I24-m 4) (= I24-m 6) (= I24-m 9) (= I24-m 11)) 30 (ite (= (mod I24-y 4) 0) 29 28))))))
(assert (or (< I23-s-y I23-e-y) (and (= I23-s-y I23-e-y) (< I23-s-m I23-e-m)) (and (= I23-s-y I23-e-y) (= I23-s-m I23-e-m) (<= I23-s-d I23-e-d))))
(assert (and (>= I23-e-d 1) (<= I23-e-d (ite (or (= I23-e-m 0) (= I23-e-m 1) (= I23-e-m 3) (= I23-e-m 5) (= I23-e-m 7) (= I23-e-m 8) (= I23-e-m 10) (= I23-e-m 12)) 31 (ite (or (= I23-e-m 4) (= I23-e-m 6) (= I23-e-m 9) (= I23-e-m 11)) 30 (ite (= (mod I23-e-y 4) 0) 29 28))))))
(assert (and (>= I23-e-m 1) (<= I23-e-m 12)))
(assert (and (>= I23-e-y 1901) (<= I23-e-y 2099)))
(assert (and (>= I23-s-d 1) (<= I23-s-d (ite (or (= I23-s-m 0) (= I23-s-m 1) (= I23-s-m 3) (= I23-s-m 5) (= I23-s-m 7) (= I23-s-m 8) (= I23-s-m 10) (= I23-s-m 12)) 31 (ite (or (= I23-s-m 4) (= I23-s-m 6) (= I23-s-m 9) (= I23-s-m 11)) 30 (ite (= (mod I23-s-y 4) 0) 29 28))))))
(assert (and (>= I23-s-m 1) (<= I23-s-m 12)))
(assert (and (>= I23-s-y 1901) (<= I23-s-y 2099)))
(assert (and (> (str.to_int S8-S) 1900) (< (str.to_int S8-S) 2100)))
(assert (and (> (str.to_int S8-S) 1900) (< (str.to_int S8-S) 2100)))
(assert (and (str.in_re S8-S (re.+ (re.range "0" "9"))) (>= (str.len S8-S) 4) (<= (str.len S8-S) 4)))
(assert (and (str.in_re S30-S (re.+ (re.range "0" "9"))) (>= (str.len S30-S) 4) (<= (str.len S30-S) 4)))
(assert (or (= S2-S "0") (= S2-S "1")))
(assert (ite B6-F (or (= S6-S "11") (= S6-S "01") (= S6-S "12") (= S6-S "02") (= S6-S "03") (= S6-S "04") (= S6-S "05") (= S6-S "06") (= S6-S "07") (= S6-S "08") (= S6-S "09") (= S6-S "10")) (= S6-S "")))
(assert (or (= S1-S "2216060427666") (= S1-S "2815094023008") (= S1-S "1060048649864") (= S1-S "2348008413417") (= S1-S "2702024686052") (= S1-S "3207051220872") (= S1-S "1123012960769") (= S1-S "5103096558745") (= S1-S "2632041436639") (= S1-S "3103071321727") (= S1-S "3062087900803") (= S1-S "9170050074951") (= S1-S "4084068125545") (= S1-S "2460083378687") (= S1-S "2189063488000")))
(assert (ite B3-F (or (= S3-S "2216060427666") (= S3-S "2815094023008") (= S3-S "1060048649864") (= S3-S "2348008413417") (= S3-S "2702024686052") (= S3-S "3207051220872") (= S3-S "1123012960769") (= S3-S "5103096558745") (= S3-S "2632041436639") (= S3-S "3103071321727") (= S3-S "3062087900803") (= S3-S "9170050074951") (= S3-S "4084068125545") (= S3-S "2460083378687") (= S3-S "2189063488000")) (= S3-S "")))
(assert B80-F)
(assert (not (and B60-F B59-F (distinct I59 0) (distinct I60 (div (* I59 15) 100)))))
(assert (not (and B57-F (or (< I57-y 2025) (> I57-y 2025)))))
(assert (not (and (or B84-F B83-F) (not (and B84-F B83-F)))))
(assert (not (and (not B63-F) (not B64-F) (not B65-F) (not B66-F) (not B67-F) (not B68-F) (not B69-F) (not B70-F) (not B71-F) (not B72-F) (not B73-F) (not B74-F) (not B75-F) (not B76-F) (not B77-F) (not B78-F) (not B79-F) (not B80-F))))
(assert (not (distinct I55 (+ I12 I18 I27 I36 I38 I42 I45 I48 I52 (- 992807793261)))))
(assert (not (distinct I56 (+ I14 I19 I20 I22 I28 I29 I34 I39 I43 I46 I49 I53 263931156265))))
(assert (not (and B5-F (or (< I5-y 2025) (> I5-y 2025)))))
(assert (not (or (> I10-y I9-y) (and (= I10-y I9-y) (> I10-m I9-m)) (and (= I10-y I9-y) (= I10-m I9-m) (> I10-d I9-d)))))
(assert (not (or (distinct I9-y (ite B5-F I5-y 0)) (distinct I9-m (str.to_int (ite B6-F S6-S ""))))))
(assert (not (>= (ite (and (>= (str.to_int S8-S) 1) (<= (str.to_int S8-S) 9999)) (+ (- I10-y (str.to_int S8-S)) (ite (or (< (str.to_int S8-S) I10-y) (and (= (str.to_int S8-S) I10-y) (< 5 I10-m)) (and (= (str.to_int S8-S) I10-y) (= 5 I10-m) (< 1 I10-d)) (and (= (str.to_int S8-S) I10-y) (= 5 I10-m) (= 1 I10-d))) (ite (or (< 5 I10-m) (and (= 5 I10-m) (<= 1 I10-d))) 0 (- 1)) (ite (or (> 5 I10-m) (and (= 5 I10-m) (>= 1 I10-d))) 0 1))) 0) 1)))
(assert (not (< I9-y (str.to_int (str.substr S8-S 0 4)))))
(assert (not (> (str.to_int (str.substr S8-S 0 4)) 2025)))
(assert (not (and (distinct I11 0) (= I12 0))))
(assert (not (> (ite (>= (- 263931153760 (div (* I12 55) 10)) 0) (- 263931153760 (div (* I12 55) 10)) (- (- 263931153760 (div (* I12 55) 10)))) 100)))
(assert (not (or (> (* I12 100) (+ (* I11 15) 100)) (> 719221719800 (+ (* I13 15) 100)))))
(assert (not (> (ite (>= (- I14 39557194589) 0) (- I14 39557194589) (- (- I14 39557194589))) 100)))
(assert (not (and B32-F (not B33-F))))
(assert (not (and B32-F (or (< I32-y I31-y) (and (= I32-y I31-y) (< I32-m I31-m)) (and (= I32-y I31-y) (= I32-m I31-m) (< I32-d I31-d)) (and (= I32-y I31-y) (= I32-m I31-m) (= I32-d I31-d))))))
(assert (not (and B32-F (< I32-y (str.to_int (str.substr S30-S 0 4))))))
(assert (not (and B32-F B33-F (or (< I32-y I33-y) (and (= I32-y I33-y) (< I32-m I33-m)) (and (= I32-y I33-y) (= I32-m I33-m) (< I32-d I33-d))))))
(assert (not (and B32-F (or (< I32-y (ite B5-F I5-y 0)) (and (= I32-y (ite B5-F I5-y 0)) (< I32-m (str.to_int (ite B6-F S6-S ""))))))))
(assert (not (and B33-F (< I33-y 2023))))
(assert (not (distinct I31-y (str.to_int (str.substr S30-S 0 4)))))
(assert (not (or (> I31-y (ite B5-F I5-y 0)) (and (= I31-y (ite B5-F I5-y 0)) (> I31-m (str.to_int (ite B6-F S6-S "")))))))
(assert (not (> (str.to_int (str.substr S30-S 0 4)) 2025)))
(assert (not (or (and (or (< I31-y 2022) (and (= I31-y 2022) (< I31-m 10)) (and (= I31-y 2022) (= I31-m 10) (< I31-d 1))) (< (str.to_int (str.substr S30-S 0 4)) 2025)) (and (or (> I31-y 2022) (and (= I31-y 2022) (> I31-m 10)) (and (= I31-y 2022) (= I31-m 10) (> I31-d 1)) (and (= I31-y 2022) (= I31-m 10) (= I31-d 1))) (or (and (< (str.to_int (str.substr S30-S 0 4)) 2025) (= (str.to_int (str.substr S30-S 0 4)) 2024) (>= (str.to_int (ite B6-F S6-S "")) 5) (<= (str.to_int (ite B6-F S6-S "")) 12)) (and (< (str.to_int (str.substr S30-S 0 4)) 2025) (distinct (str.to_int (str.substr S30-S 0 4)) 2024)))))))
(assert (not (or (and (= I31-y (ite B5-F I5-y 0)) (< I31-m (- (str.to_int (ite B6-F S6-S "")) 4))) (and (distinct I31-y (ite B5-F I5-y 0)) (< I31-y (- (ite B5-F I5-y 0) 1))) (and (distinct I31-y (ite B5-F I5-y 0)) (= I31-y (- (ite B5-F I5-y 0) 1)) (> I31-m 8) (< I31-m (- (+ (str.to_int (ite B6-F S6-S "")) 12) 4))) (and (distinct I31-y (ite B5-F I5-y 0)) (= I31-y (- (ite B5-F I5-y 0) 1)) (<= I31-m 8)))))
(assert (not (or (and (distinct I35 0) (= I36 0)) (and (distinct I37 0) (= I38 0)))))
(assert (not (> (ite (>= (- I34 (- 5499999999995)) 0) (- I34 (- 5499999999995)) (- (- I34 (- 5499999999995)))) 100)))
(assert (not (or (> (* I36 100) (+ (* I35 15) 100)) (> (* I38 100) (+ (* I37 15) 100)))))
(assert (not (> (ite (>= (- 2506 (div (* I36 55) 10)) 0) (- 2506 (div (* I36 55) 10)) (- (- 2506 (div (* I36 55) 10)))) 100)))
(assert (not (> (ite (>= (- I39 (div (* I38 55) 10)) 0) (- I39 (div (* I38 55) 10)) (- (- I39 (div (* I38 55) 10)))) 100)))
(assert (not (or (and (distinct I41 0) (= I42 0)) (and (distinct I44 0) (= I45 0)) (and (distinct I47 0) (= I48 0)))))
(assert (not (> (ite (>= (- I43 (div (* I42 55) 10)) 0) (- I43 (div (* I42 55) 10)) (- (- I43 (div (* I42 55) 10)))) 100)))
(assert (not (or (> (* I42 100) (+ (* I41 15) 100)) (> (* I45 100) (+ (* I44 15) 100)) (> (* I48 100) (+ (* I47 15) 100)))))
(assert (not (> (ite (>= (- I46 (div (* I45 55) 10)) 0) (- I46 (div (* I45 55) 10)) (- (- I46 (div (* I45 55) 10)))) 100)))
(assert (not (> (ite (>= (- I49 (div (* I48 55) 10)) 0) (- I49 (div (* I48 55) 10)) (- (- I49 (div (* I48 55) 10)))) 100)))
(assert (not (and B51-F (distinct I51 0) (= I52 0))))
(assert (not (and B52-F B53-F (> (ite (>= (- I53 (div (* I52 55) 10)) 0) (- I53 (div (* I52 55) 10)) (- (- I53 (div (* I52 55) 10)))) 100))))
(assert (not (and B52-F (> (* I52 100) (+ (* I51 15) 100)))))
(assert (not (or (> I40-y (ite B5-F I5-y 0)) (and (> I40-m (str.to_int (ite B6-F S6-S ""))) (= I40-y (ite B5-F I5-y 0))))))
(assert (not (or (> I17-y I16-y) (and (= I17-y I16-y) (> I17-m I16-m)) (and (= I17-y I16-y) (= I17-m I16-m) (> I17-d I16-d)))))
(assert (not (or (distinct I16-y (ite B5-F I5-y 0)) (distinct I16-m (str.to_int (ite B6-F S6-S ""))))))
(assert (not (< I16-y 2025)))
(assert (not (= I18 0)))
(assert (not (> (ite (>= (- I19 (div (* I18 55) 10)) 0) (- I19 (div (* I18 55) 10)) (- (- I19 (div (* I18 55) 10)))) 100)))
(assert (not (or (> (* I18 100) (- 81089108735)) (> 4000 (+ (* I21 15) 100)))))
(assert (not (> (ite (>= (- I20 (- 4538)) 0) (- I20 (- 4538)) (- (- I20 (- 4538)))) 100)))
(assert (not (> (ite (>= (- I22 220) 0) (- I22 220) (- (- I22 220))) 100)))
(assert (not (or (> I15-e-y I16-y) (and (= I15-e-y I16-y) (> I15-e-m I16-m)) (and (= I15-e-y I16-y) (= I15-e-m I16-m) (> I15-e-d I16-d)))))
(assert (not (or (< I15-s-y (- I15-e-y 1)) (and (= I15-s-y (- I15-e-y 1)) (< I15-s-m I15-e-m)) (and (= I15-s-y (- I15-e-y 1)) (= I15-s-m I15-e-m) (< I15-s-d (+ I15-e-d 1))))))
(assert (not (or (> I25-y I24-y) (and (= I25-y I24-y) (> I25-m I24-m)) (and (= I25-y I24-y) (= I25-m I24-m) (> I25-d I24-d)))))
(assert (not (or (distinct I24-y (ite B5-F I5-y 0)) (distinct I24-m (str.to_int (ite B6-F S6-S ""))))))
(assert (not (< I24-y 2025)))
(assert (not (and (distinct I26 0) (= I27 0))))
(assert (not (> (ite (>= (- I28 (div (* I27 55) 10)) 0) (- I28 (div (* I27 55) 10)) (- (- I28 (div (* I27 55) 10)))) 100)))
(assert (not (> (* I27 100) (+ (* I26 15) 100))))
(assert (not (> (ite (>= (- I29 (- 53218)) 0) (- I29 (- 53218)) (- (- I29 (- 53218)))) 100)))
(assert (not (or (> I23-e-y I24-y) (and (= I23-e-y I24-y) (> I23-e-m I24-m)) (and (= I23-e-y I24-y) (= I23-e-m I24-m) (> I23-e-d I24-d)))))
(assert (not (or (< I23-s-y (- I23-e-y 1)) (and (= I23-s-y (- I23-e-y 1)) (< I23-s-m I23-e-m)) (and (= I23-s-y (- I23-e-y 1)) (= I23-s-m I23-e-m) (< I23-s-d (+ I23-e-d 1))))))
(assert (not B57-F))
(assert (and B5-F B6-F))
(assert (not (and B5-F B6-F (or (< 2026 I5-y) (and (= 2026 I5-y) (<= 6 (str.to_int S6-S)))))))
(assert (not (and B5-F B6-F (or (< 2027 I5-y) (and (= 2027 I5-y) (<= 6 (str.to_int S6-S)))))))
(assert (not (and B3-F (= S2-S "0"))))
(assert (not (and B3-F (= S3-S S1-S))))
(assert (not (and (or B66-F B65-F B67-F B63-F B64-F B68-F B69-F B70-F B71-F B72-F B79-F B73-F B76-F B77-F B74-F B75-F B78-F) (not B80-F))))
(assert (not (and B80-F (or B66-F B65-F B67-F B63-F B64-F B68-F B69-F B70-F B71-F B72-F B79-F B73-F B76-F B77-F B74-F B75-F B78-F) (distinct I81 (+ I66 I65 I64 I70 I72 I79 I76 I77 71365926154375)))))
(assert (not (and B80-F (not B66-F) (not B65-F) (not B67-F) (not B63-F) (not B64-F) (not B68-F) (not B69-F) (not B70-F) (not B71-F) (not B72-F) (not B79-F) (not B73-F) (not B76-F) (not B77-F) (not B74-F) (not B75-F) (not B78-F))))
(assert (not (and B80-F (distinct I81 (* I55 100)))))
(push 1)
(assert B32-F)
(set-info :status sat)
(check-sat)
(push 1)
(assert B6-F)
(set-info :status sat)
(check-sat)
(push 1)
(assert B33-F)
(set-info :status sat)
(check-sat)
(push 1)
(assert B4-F)
(set-info :status sat)
(check-sat)
(push 1)
(assert B3-F)
(set-info :status sat)
(check-sat)
(push 1)
(assert B7-F)
(set-info :status sat)
(check-sat)
(push 1)
(assert B68-F)
(set-info :status sat)
(check-sat)
(push 1)
(assert B69-F)
(set-info :status sat)
(check-sat)
(push 1)
(assert B74-F)
(set-info :status sat)
(check-sat)
(push 1)
(assert B75-F)
(set-info :status sat)
(check-sat)
(push 1)
(assert B63-F)
(set-info :status sat)
(check-sat)
(push 1)
(assert B78-F)
(set-info :status sat)
(check-sat)
(push 1)
(assert B60-F)
(set-info :status unsat)
(check-sat)
(pop 1)
(push 1)
(assert B64-F)
(set-info :status sat)
(check-sat)
(push 1)
(assert B59-F)
(set-info :status unsat)
(check-sat)
(pop 1)
(push 1)
(assert B76-F)
(set-info :status sat)
(check-sat)
(push 1)
(assert B72-F)
(set-info :status sat)
(check-sat)
(push 1)
(assert B79-F)
(set-info :status sat)
(check-sat)
(push 1)
(assert B5-F)
(set-info :status sat)
(check-sat)
(push 1)
(assert B66-F)
(set-info :status sat)
(check-sat)
(push 1)
(assert B65-F)
(set-info :status sat)
(check-sat)
(push 1)
(assert B57-F)
(set-info :status unsat)
(check-sat)
(pop 1)
(push 1)
(assert B51-F)
(set-info :status sat)
(check-sat)
(push 1)
(assert B84-F)
(set-info :status sat)
(check-sat)
(push 1)
(assert B83-F)
(set-info :status sat)
(check-sat)
(push 1)
(assert B71-F)
(set-info :status sat)
(check-sat)
(push 1)
(assert B77-F)
(set-info :status sat)
(check-sat)
(push 1)
(assert B80-F)
(set-info :status sat)
(check-sat)
(push 1)
(assert B67-F)
(set-info :status sat)
(check-sat)
(push 1)
(assert B52-F)
(set-info :status sat)
(check-sat)
(push 1)
(assert B70-F)
(set-info :status sat)
(check-sat)
(push 1)
(assert B73-F)
(set-info :status sat)
(check-sat)
(push 1)
(assert B53-F)
(set-info :status sat)
(check-sat)
(exit)

